-99 -99 000 000 -99 -99 -99 000 -99 -99 -99 -99 000 000 000 -99 -99 -99 -99 000 -99 -99 -99 000 000 000 000 -99 -99 -99 000
000 000 000 000 000 000 000 000 -99 -99 -99 -99 -99 000 000 000 -99 -99 -99 000 000 -99 -99 -99 000 000 000 -99 -99 -99 000
000 000 000 000 000 000 000 000 000 000 -99 -99 -99 -99 000 000 -99 -99 -99 -99 000 -99 -99 -99 000 000 000 -99 -99 -99 -99
000 000 000 000 000 000 000 000 000 000 -99 -99 000 -99 000 000 -99 -99 -99 -99 000 000 -99 -99 -99 000 000 -99 -99 -99 -99
000 000 000 000 000 000 000 000 000 000 -99 -99 000 000 000 000 000 -99 -99 -99 000 000 -99 -99 -99 -99 -99 -99 -99 -99 -99
000 000 000 000 000 000 000 000 000 000 -99 -99 000 000 000 000 000 -99 -99 -99 -99 000 000 -99 -99 -99 -99 -99 -99 -99 -99
000 000 000 000 000 000 000 000 000 000 -99 -99 -99 000 -99 000 000 -99 -99 -99 -99 000 000 000 000 -99 -99 -99 -99 -99 -99
000 000 000 000 000 000 000 -99 000 000 000 -99 -99 000 -99 000 000 000 -99 -99 -99 -99 -99 000 000 000 -99 -99 -99 000 000
000 000 000 000 000 000 -99 -99 000 000 000 000 -99 -99 -99 -99 000 000 000 -99 000 000 000 000 000 000 000 000 -99 000 000
000 000 000 000 000 000 000 000 000 000 000 000 -99 -99 -99 -99 000 000 000 -99 000 000 -99 -99 -99 -99 000 000 000 000 000
000 000 000 000 000 000 000 000 000 000 000 000 000 -99 -99 -99 000 000 000 000 -99 000 000 -99 -99 000 000 000 000 000 000
000 000 000 000 000 000 000 000 000 000 000 000 000 -99 -99 000 000 000 000 000 000 000 000 000 000 000 000 000 000 000 000
000 000 000 000 -99 000 000 000 -99 000 000 000 000 -99 -99 000 000 000 000 000 -99 -99 -99 -99 000 000 000 000 000 -99 000
000 000 000 000 000 000 000 000 -99 -99 -99 -99 -99 -99 -99 -99 000 000 000 -99 -99 000 000 -99 000 000 000 000 -99 -99 000
000 000 000 000 000 000 000 000 -99 -99 -99 -99 -99 000 -99 000 000 000 -99 -99 -99 -99 000 -99 000 000 000 000 000 000 000
000 -99 000 000 000 000 000 000 -99 -99 -99 -99 -99 000 000 -99 -99 -99 -99 -99 -99 -99 -99 -99 000 000 -99 -99 000 000 000
000 000 000 000 000 000 000 000 -99 -99 -99 -99 000 000 000 -99 -99 -99 -99 -99 -99 -99 000 -99 -99 000 000 -99 000 000 000
000 000 000 000 000 000 000 000 000 -99 -99 -99 -99 000 000 -99 000 000 -99 -99 -99 -99 000 -99 -99 000 000 -99 000 000 000
000 000 000 000 -99 000 000 000 000 -99 -99 -99 -99 000 000 -99 000 000 -99 -99 -99 000 000 -99 -99 000 000 000 -99 000 000
000 000 000 000 000 000 000 000 000 -99 -99 -99 -99 -99 -99 -99 000 000 000 -99 -99 -99 000 -99 -99 000 000 -99 -99 -99 -99
000 000 000 000 000 000 000 000 -99 -99 -99 -99 -99 -99 -99 -99 000 000 000 -99 000 -99 000 -99 -99 -99 000 -99 -99 -99 -99
000 000 000 000 000 000 000 000 -99 -99 000 000 -99 -99 -99 000 000 000 000 000 000 000 000 -99 -99 -99 -99 -99 -99 -99 -99
000 000 000 000 000 000 000 000 000 -99 000 000 -99 -99 -99 000 000 000 000 000 000 000 000 -99 -99 -99 -99 -99 -99 -99 -99
000 000 000 000 000 000 000 000 000 -99 -99 001 000 000 -99 000 000 000 000 000 000 000 000 -99 -99 -99 -99 -99 -99 -99 -99
000 000 000 000 000 000 000 000 000 -99 -99 -99 -99 000 000 000 000 000 000 000 000 000 000 -99 -99 -99 -99 -99 -99 -99 -99
001 000 001 000 000 000 000 000 000 000 -99 -99 -99 000 000 000 000 000 000 000 000 000 -99 -99 -99 -99 -99 -99 -99 -99 000
000 000 000 000 000 000 000 000 000 000 -99 -99 -99 -99 000 000 000 000 000 -99 000 000 000 -99 -99 -99 -99 -99 -99 -99 000
000 000 000 000 000 000 000 000 000 000 -99 -99 -99 000 000 000 000 000 -99 -99 000 000 000 -99 -99 -99 -99 -99 -99 000 000
000 000 000 000 000 000 000 000 000 000 -99 -99 -99 -99 000 000 000 000 000 -99 000 000 -99 -99 -99 -99 -99 -99 -99 000 000
000 000 000 000 000 000 000 000 000 000 000 -99 -99 000 000 000 000 000 000 000 000 000 -99 -99 000 -99 -99 -99 -99 -99 -99
000 000 000 000 000 000 000 000 000 000 000 -99 000 000 000 000 000 000 000 000 000 000 -99 000 000 000 000 -99 -99 -99 -99
-99 000 000 000 000 000 000 000 000 -99 -99 000 000 001 000 000 000 000 000 000 000 000 000 000 000 000 000 -99 -99 -99 -99
000 000 000 000 000 000 000 000 000 -99 -99 000 000 002 000 000 000 000 000 000 000 000 000 000 000 000 000 -99 -99 000 000
-99 -99 000 000 000 000 000 000 -99 -99 -99 000 001 001 000 000 000 000 000 000 000 000 000 000 000 000 000 -99 000 000 000
-99 000 000 000 000 000 000 000 -99 -99 -99 000 000 000 000 000 000 000 000 000 000 000 000 000 000 000 000 -99 000 000 000
000 000 000 000 000 -99 000 000 000 -99 -99 -99 000 000 000 -99 000 000 000 000 000 000 000 000 000 000 -99 000 000 000 -99
000 000 -99 000 000 -99 -99 000 000 -99 -99 -99 000 000 000 000 000 000 000 -99 -99 000 000 000 000 000 -99 000 000 -99 -99
000 000 -99 -99 000 -99 -99 -99 000 -99 000 000 000 000 000 000 000 000 000 -99 000 000 000 000 000 000 000 -99 -99 -99 -99
000 000 -99 -99 000 -99 -99 -99 -99 000 000 002 000 000 000 000 000 000 -99 -99 000 000 000 000 000 000 000 -99 -99 -99 -99
-99 -99 -99 000 -99 -99 000 -99 000 000 002 006 000 000 000 000 000 000 -99 -99 000 -99 000 000 000 -99 000 -99 -99 -99 -99
000 000 -99 000 000 000 000 000 000 000 003 002 000 000 000 000 000 000 -99 -99 000 -99 -99 000 -99 000 000 -99 -99 000 000
000 000 000 000 000 000 000 000 000 000 003 002 001 001 000 000 000 000 -99 000 000 -99 -99 -99 000 000 -99 -99 -99 000 000
000 000 000 000 000 000 000 000 000 000 002 001 001 001 001 003 000 000 000 000 000 -99 -99 -99 000 000 -99 -99 -99 -99 -99
000 000 000 000 000 000 001 000 000 000 001 002 002 002 007 012 002 000 000 000 000 -99 -99 -99 000 000 -99 000 000 -99 -99
001 000 000 -99 000 001 000 000 000 000 001 001 003 004 023 017 001 000 000 000 -99 -99 -99 000 000 -99 000 000 000 -99 -99
001 000 000 -99 000 001 000 000 000 000 000 001 001 001 004 001 001 000 000 000 000 -99 -99 000 000 -99 000 000 -99 -99 -99
002 002 000 -99 000 000 000 000 000 000 000 000 000 000 001 000 001 001 000 000 -99 -99 -99 000 000 -99 000 -99 000 000 -99
001 000 000 -99 -99 000 000 000 000 000 000 000 000 000 000 000 001 000 001 000 -99 -99 -99 000 -99 -99 -99 000 000 000 -99
000 000 000 -99 -99 000 000 000 000 000 -99 000 000 000 000 000 000 000 001 000 -99 -99 -99 -99 -99 -99 -99 000 000 -99 -99
000 000 000 -99 -99 -99 -99 -99 -99 -99 -99 000 000 000 000 000 000 001 000 000 -99 -99 -99 -99 -99 -99 -99 000 000 -99 -99
000 -99 -99 -99 -99 -99 -99 -99 -99 -99 -99 -99 000 000 -99 000 000 000 000 000 -99 -99 -99 -99 -99 -99 -99 -99 -99 -99 -99
-99 -99 -99 -99 -99 -99 -99 -99 -99 -99 -99 -99 -99 -99 -99 -99 000 000 000 000 -99 -99 -99 -99 -99 -99 -99 -99 -99 -99 -99
-99 -99 -99 -99 -99 -99 -99 -99 -99 -99 -99 -99 -99 -99 -99 -99 000 000 000 000 000 -99 -99 -99 -99 -99 -99 -99 -99 -99 -99
-99 -99 -99 -99 -99 -99 -99 -99 -99 -99 -99 -99 -99 -99 -99 -99 000 000 000 000 -99 -99 -99 -99 -99 -99 -99 -99 -99 -99 -99
-99 -99 -99 -99 -99 -99 -99 -99 -99 -99 -99 -99 -99 -99 -99 000 -99 -99 000 000 -99 -99 -99 -99 -99 -99 -99 -99 -99 -99 -99
